(set-info :smt-lib-version 2.6)
(set-logic QF_NIA)
(set-info :source |
Generated by: Cristina Borralleras, Daniel Larraz, Albert Oliveras, Enric Rodriguez-Carbonell, Albert Rubio
Generated on: 2017-04-27
Generator: VeryMax
Application: Termination proving
Target solver: barcelogic
|)
(set-info :license "https://creativecommons.org/licenses/by/4.0/")
(set-info :category "industrial")
(set-info :status unknown)
(declare-fun Nl3arg11 () Int)
(declare-fun Nl3arg21 () Int)
(declare-fun Nl3arg31 () Int)
(declare-fun Nl3arg41 () Int)
(declare-fun Nl3arg51 () Int)
(declare-fun Nl3arg61 () Int)
(declare-fun Nl3arg71 () Int)
(declare-fun Nl3arg81 () Int)
(declare-fun Nl3arg91 () Int)
(declare-fun Nl5arg11 () Int)
(declare-fun Nl5arg21 () Int)
(declare-fun Nl5arg31 () Int)
(declare-fun Nl5arg41 () Int)
(declare-fun Nl5arg51 () Int)
(declare-fun Nl5arg61 () Int)
(declare-fun Nl5arg71 () Int)
(declare-fun Nl5arg81 () Int)
(declare-fun Nl5arg91 () Int)
(declare-fun Nl6arg11 () Int)
(declare-fun Nl6arg21 () Int)
(declare-fun Nl6arg31 () Int)
(declare-fun Nl6arg41 () Int)
(declare-fun Nl6arg51 () Int)
(declare-fun Nl6arg61 () Int)
(declare-fun Nl6arg71 () Int)
(declare-fun Nl6arg81 () Int)
(declare-fun Nl6arg91 () Int)
(declare-fun lam0n0 () Int)
(declare-fun lam0n1 () Int)
(declare-fun lam0n2 () Int)
(declare-fun lam0n3 () Int)
(declare-fun lam0n4 () Int)
(declare-fun lam0n5 () Int)
(declare-fun lam0n6 () Int)
(declare-fun lam0n7 () Int)
(declare-fun lam0n8 () Int)
(declare-fun Nl3CT1 () Int)
(declare-fun lam1n0 () Int)
(declare-fun lam1n1 () Int)
(declare-fun lam1n2 () Int)
(declare-fun lam1n3 () Int)
(declare-fun lam1n4 () Int)
(declare-fun lam1n5 () Int)
(declare-fun lam1n6 () Int)
(declare-fun lam1n7 () Int)
(declare-fun lam1n8 () Int)
(declare-fun lam2n0 () Int)
(declare-fun lam2n1 () Int)
(declare-fun lam2n2 () Int)
(declare-fun lam2n3 () Int)
(declare-fun lam2n4 () Int)
(declare-fun lam2n5 () Int)
(declare-fun lam2n6 () Int)
(declare-fun lam2n7 () Int)
(declare-fun lam2n8 () Int)
(declare-fun lam2n9 () Int)
(declare-fun lam2n10 () Int)
(declare-fun lam3n0 () Int)
(declare-fun lam3n1 () Int)
(declare-fun lam3n2 () Int)
(declare-fun lam3n3 () Int)
(declare-fun lam3n4 () Int)
(declare-fun lam3n5 () Int)
(declare-fun lam3n6 () Int)
(declare-fun lam3n7 () Int)
(declare-fun lam3n8 () Int)
(declare-fun lam3n9 () Int)
(declare-fun lam3n10 () Int)
(declare-fun Nl5CT1 () Int)
(declare-fun lam4n0 () Int)
(declare-fun lam4n1 () Int)
(declare-fun lam4n2 () Int)
(declare-fun lam4n3 () Int)
(declare-fun lam4n4 () Int)
(declare-fun lam4n5 () Int)
(declare-fun lam4n6 () Int)
(declare-fun lam4n7 () Int)
(declare-fun lam5n0 () Int)
(declare-fun lam5n1 () Int)
(declare-fun lam5n2 () Int)
(declare-fun lam5n3 () Int)
(declare-fun lam5n4 () Int)
(declare-fun lam5n5 () Int)
(declare-fun lam5n6 () Int)
(declare-fun lam5n7 () Int)
(declare-fun lam6n0 () Int)
(declare-fun lam6n1 () Int)
(declare-fun lam6n2 () Int)
(declare-fun lam6n3 () Int)
(declare-fun lam6n4 () Int)
(declare-fun lam6n5 () Int)
(declare-fun lam6n6 () Int)
(declare-fun lam6n7 () Int)
(declare-fun lam6n8 () Int)
(declare-fun lam6n9 () Int)
(declare-fun lam6n10 () Int)
(declare-fun lam7n0 () Int)
(declare-fun lam7n1 () Int)
(declare-fun lam7n2 () Int)
(declare-fun lam7n3 () Int)
(declare-fun lam7n4 () Int)
(declare-fun lam7n5 () Int)
(declare-fun lam7n6 () Int)
(declare-fun lam7n7 () Int)
(declare-fun lam7n8 () Int)
(declare-fun lam7n9 () Int)
(declare-fun lam7n10 () Int)
(declare-fun lam8n0 () Int)
(declare-fun lam8n1 () Int)
(declare-fun lam8n2 () Int)
(declare-fun lam8n3 () Int)
(declare-fun lam8n4 () Int)
(declare-fun lam8n5 () Int)
(declare-fun lam8n6 () Int)
(declare-fun lam8n7 () Int)
(declare-fun lam8n8 () Int)
(declare-fun lam8n9 () Int)
(declare-fun lam8n10 () Int)
(declare-fun lam9n0 () Int)
(declare-fun lam9n1 () Int)
(declare-fun lam9n2 () Int)
(declare-fun lam9n3 () Int)
(declare-fun lam9n4 () Int)
(declare-fun lam9n5 () Int)
(declare-fun lam9n6 () Int)
(declare-fun lam9n7 () Int)
(declare-fun lam9n8 () Int)
(declare-fun lam9n9 () Int)
(declare-fun lam9n10 () Int)
(declare-fun Nl6CT1 () Int)
(declare-fun lam10n0 () Int)
(declare-fun lam10n1 () Int)
(declare-fun lam10n2 () Int)
(declare-fun lam10n3 () Int)
(declare-fun lam10n4 () Int)
(declare-fun lam11n0 () Int)
(declare-fun lam11n1 () Int)
(declare-fun lam11n2 () Int)
(declare-fun lam11n3 () Int)
(declare-fun lam11n4 () Int)
(declare-fun lam12n0 () Int)
(declare-fun lam12n1 () Int)
(declare-fun lam12n2 () Int)
(declare-fun lam12n3 () Int)
(declare-fun lam12n4 () Int)
(declare-fun lam13n0 () Int)
(declare-fun lam13n1 () Int)
(declare-fun lam13n2 () Int)
(declare-fun lam13n3 () Int)
(declare-fun lam13n4 () Int)
(declare-fun lam14n0 () Int)
(declare-fun lam14n1 () Int)
(declare-fun lam14n2 () Int)
(declare-fun lam14n3 () Int)
(declare-fun lam14n4 () Int)
(declare-fun lam14n5 () Int)
(declare-fun lam14n6 () Int)
(declare-fun lam14n7 () Int)
(declare-fun lam14n8 () Int)
(declare-fun lam14n9 () Int)
(declare-fun lam14n10 () Int)
(declare-fun lam14n11 () Int)
(declare-fun lam14n12 () Int)
(declare-fun lam14n13 () Int)
(declare-fun lam14n14 () Int)
(assert ( and ( <= ( - 1000 ) Nl3arg11 ) ( <= Nl3arg11 1000 ) ( <= ( - 1000 ) Nl3arg21 ) ( <= Nl3arg21 1000 ) ( <= ( - 1000 ) Nl3arg31 ) ( <= Nl3arg31 1000 ) ( <= ( - 1000 ) Nl3arg41 ) ( <= Nl3arg41 1000 ) ( <= ( - 1000 ) Nl3arg51 ) ( <= Nl3arg51 1000 ) ( <= ( - 1000 ) Nl3arg61 ) ( <= Nl3arg61 1000 ) ( <= ( - 1000 ) Nl3arg71 ) ( <= Nl3arg71 1000 ) ( <= ( - 1000 ) Nl3arg81 ) ( <= Nl3arg81 1000 ) ( <= ( - 1000 ) Nl3arg91 ) ( <= Nl3arg91 1000 ) ( <= ( - 1000 ) Nl5arg11 ) ( <= Nl5arg11 1000 ) ( <= ( - 1000 ) Nl5arg21 ) ( <= Nl5arg21 1000 ) ( <= ( - 1000 ) Nl5arg31 ) ( <= Nl5arg31 1000 ) ( <= ( - 1000 ) Nl5arg41 ) ( <= Nl5arg41 1000 ) ( <= ( - 1000 ) Nl5arg51 ) ( <= Nl5arg51 1000 ) ( <= ( - 1000 ) Nl5arg61 ) ( <= Nl5arg61 1000 ) ( <= ( - 1000 ) Nl5arg71 ) ( <= Nl5arg71 1000 ) ( <= ( - 1000 ) Nl5arg81 ) ( <= Nl5arg81 1000 ) ( <= ( - 1000 ) Nl5arg91 ) ( <= Nl5arg91 1000 ) ( <= ( - 1000 ) Nl6arg11 ) ( <= Nl6arg11 1000 ) ( <= ( - 1000 ) Nl6arg21 ) ( <= Nl6arg21 1000 ) ( <= ( - 1000 ) Nl6arg31 ) ( <= Nl6arg31 1000 ) ( <= ( - 1000 ) Nl6arg41 ) ( <= Nl6arg41 1000 ) ( <= ( - 1000 ) Nl6arg51 ) ( <= Nl6arg51 1000 ) ( <= ( - 1000 ) Nl6arg61 ) ( <= Nl6arg61 1000 ) ( <= ( - 1000 ) Nl6arg71 ) ( <= Nl6arg71 1000 ) ( <= ( - 1000 ) Nl6arg81 ) ( <= Nl6arg81 1000 ) ( <= ( - 1000 ) Nl6arg91 ) ( <= Nl6arg91 1000 ) ))
(assert ( or ( and ( >= lam0n0 0 ) ( >= lam0n1 0 ) ( >= lam0n2 0 ) ( >= lam0n3 0 ) ( >= lam0n4 0 ) ( >= lam0n5 0 ) ( >= lam0n6 0 ) ( >= lam0n7 0 ) ( >= lam0n8 0 ) ( > ( + ( * 1 lam0n0 ) ( * 1 lam0n1 ) ( * 1 lam0n2 ) ( * 2 lam0n7 ) ( * Nl3CT1 lam0n8 ) ( - 1 ) ) 0 ) ( = ( + ( * ( - 1 ) lam0n0 ) ( * ( - 1 ) lam0n3 ) ( * Nl3arg11 lam0n8 ) ) 0 ) ( = ( + ( * 1 lam0n7 ) ( * Nl3arg21 lam0n8 ) ) 0 ) ( = ( + ( * ( - 1 ) lam0n4 ) ( * Nl3arg31 lam0n8 ) ) 0 ) ( = ( + ( * 1 lam0n4 ) ( * Nl3arg41 lam0n8 ) ) 0 ) ( = ( + ( * ( - 1 ) lam0n5 ) ( * ( - 1 ) lam0n7 ) ( * Nl3arg51 lam0n8 ) ) 0 ) ( = ( * Nl3arg61 lam0n8 ) 0 ) ( = ( * Nl3arg71 lam0n8 ) 0 ) ( = ( * Nl3arg81 lam0n8 ) 0 ) ( = ( * Nl3arg91 lam0n8 ) 0 ) ( = ( + ( * ( - 1 ) lam0n1 ) ( * 1 lam0n6 ) ) 0 ) ( = ( + ( * ( - 1 ) lam0n2 ) ( * 1 lam0n3 ) ( * ( - 1 ) lam0n6 ) ) 0 ) ) ( and ( >= lam1n0 0 ) ( >= lam1n1 0 ) ( >= lam1n2 0 ) ( >= lam1n3 0 ) ( >= lam1n4 0 ) ( >= lam1n5 0 ) ( >= lam1n6 0 ) ( >= lam1n7 0 ) ( >= lam1n8 0 ) ( > ( + ( * 1 lam1n0 ) ( * 1 lam1n1 ) ( * 1 lam1n2 ) ( * 2 lam1n7 ) ( * Nl3CT1 lam1n8 ) ( - 1 ( + ( + ( + ( + ( + ( + ( + ( + Nl3CT1 ( * Nl3arg11 0 ) ) ( * Nl3arg21 1 ) ) ( * Nl3arg31 0 ) ) ( * Nl3arg41 2 ) ) ( * Nl3arg61 0 ) ) ( * Nl3arg71 0 ) ) ( * Nl3arg81 0 ) ) ( * Nl3arg91 0 ) ) ) ) 0 ) ( = ( + ( * ( - 1 ) lam1n0 ) ( * ( - 1 ) lam1n3 ) ( * Nl3arg11 lam1n8 ) ) 0 ) ( = ( + ( * 1 lam1n7 ) ( * Nl3arg21 lam1n8 ) ( - ( + ( + 0 ( * Nl3arg21 1 ) ) ( * Nl3arg41 2 ) ) ) ) 0 ) ( = ( + ( * ( - 1 ) lam1n4 ) ( * Nl3arg31 lam1n8 ) ) 0 ) ( = ( + ( * 1 lam1n4 ) ( * Nl3arg41 lam1n8 ) ) 0 ) ( = ( + ( * ( - 1 ) lam1n5 ) ( * ( - 1 ) lam1n7 ) ( * Nl3arg51 lam1n8 ) ( - ( + 0 Nl3arg51 ) ) ) 0 ) ( = ( * Nl3arg61 lam1n8 ) 0 ) ( = ( * Nl3arg71 lam1n8 ) 0 ) ( = ( * Nl3arg81 lam1n8 ) 0 ) ( = ( * Nl3arg91 lam1n8 ) 0 ) ( = ( + ( * ( - 1 ) lam1n1 ) ( * 1 lam1n6 ) ( - ( + 0 ( * Nl3arg11 1 ) ) ) ) 0 ) ( = ( - ( + 0 ( * Nl3arg61 1 ) ) ) 0 ) ( = ( - ( + 0 ( * Nl3arg71 1 ) ) ) 0 ) ( = ( - ( + 0 ( * Nl3arg81 1 ) ) ) 0 ) ( = ( - ( + 0 ( * Nl3arg91 1 ) ) ) 0 ) ( = ( + ( * ( - 1 ) lam1n2 ) ( * 1 lam1n3 ) ( * ( - 1 ) lam1n6 ) ) 0 ) ) ))
(assert ( or ( and ( >= lam2n0 0 ) ( >= lam2n1 0 ) ( >= lam2n2 0 ) ( >= lam2n3 0 ) ( >= lam2n4 0 ) ( >= lam2n5 0 ) ( >= lam2n6 0 ) ( >= lam2n7 0 ) ( >= lam2n8 0 ) ( >= lam2n9 0 ) ( >= lam2n10 0 ) ( > ( + ( * 1 lam2n0 ) ( * 1 lam2n1 ) ( * 1 lam2n2 ) ( * 1 lam2n3 ) ( * Nl3CT1 lam2n10 ) ( - 1 ) ) 0 ) ( = ( + ( * ( - 1 ) lam2n0 ) ( * ( - 1 ) lam2n4 ) ( * Nl3arg11 lam2n10 ) ) 0 ) ( = ( + ( * ( - 1 ) lam2n5 ) ( * ( - 1 ) lam2n6 ) ( * ( - 2 ) lam2n7 ) ( * Nl3arg21 lam2n10 ) ) 0 ) ( = ( + ( * 1 lam2n1 ) ( * ( - 1 ) lam2n6 ) ( * ( - 3 ) lam2n7 ) ( * ( - 1 ) lam2n8 ) ( * Nl3arg31 lam2n10 ) ) 0 ) ( = ( + ( * ( - 1 ) lam2n1 ) ( * Nl3arg41 lam2n10 ) ) 0 ) ( = ( * Nl3arg51 lam2n10 ) 0 ) ( = ( * Nl3arg61 lam2n10 ) 0 ) ( = ( * Nl3arg71 lam2n10 ) 0 ) ( = ( * Nl3arg81 lam2n10 ) 0 ) ( = ( * Nl3arg91 lam2n10 ) 0 ) ( = ( + ( * ( - 1 ) lam2n2 ) ( * 1 lam2n4 ) ( * ( - 1 ) lam2n9 ) ) 0 ) ( = ( + ( * ( - 1 ) lam2n3 ) ( * 1 lam2n9 ) ) 0 ) ) ( and ( >= lam3n0 0 ) ( >= lam3n1 0 ) ( >= lam3n2 0 ) ( >= lam3n3 0 ) ( >= lam3n4 0 ) ( >= lam3n5 0 ) ( >= lam3n6 0 ) ( >= lam3n7 0 ) ( >= lam3n8 0 ) ( >= lam3n9 0 ) ( >= lam3n10 0 ) ( > ( + ( * 1 lam3n0 ) ( * 1 lam3n1 ) ( * 1 lam3n2 ) ( * 1 lam3n3 ) ( * Nl3CT1 lam3n10 ) ( - 1 ( + ( + ( + ( + ( + ( + ( + ( + Nl5CT1 ( * Nl5arg11 0 ) ) ( * Nl5arg31 0 ) ) ( * Nl5arg41 0 ) ) ( * Nl5arg51 0 ) ) ( * Nl5arg61 0 ) ) ( * Nl5arg71 0 ) ) ( * Nl5arg81 0 ) ) ( * Nl5arg91 0 ) ) ) ) 0 ) ( = ( + ( * ( - 1 ) lam3n0 ) ( * ( - 1 ) lam3n4 ) ( * Nl3arg11 lam3n10 ) ) 0 ) ( = ( + ( * ( - 1 ) lam3n5 ) ( * ( - 1 ) lam3n6 ) ( * ( - 2 ) lam3n7 ) ( * Nl3arg21 lam3n10 ) ( - ( + ( + ( + 0 Nl5arg21 ) ( * Nl5arg51 1 ) ) ( * Nl5arg71 6 ) ) ) ) 0 ) ( = ( + ( * 1 lam3n1 ) ( * ( - 1 ) lam3n6 ) ( * ( - 3 ) lam3n7 ) ( * ( - 1 ) lam3n8 ) ( * Nl3arg31 lam3n10 ) ( - ( + ( + ( + 0 ( * Nl5arg41 1 ) ) ( * Nl5arg51 1 ) ) ( * Nl5arg71 7 ) ) ) ) 0 ) ( = ( + ( * ( - 1 ) lam3n1 ) ( * Nl3arg41 lam3n10 ) ( - ( + 0 ( * Nl5arg31 1 ) ) ) ) 0 ) ( = ( + ( * Nl3arg51 lam3n10 ) ( - ( + 0 ( * Nl5arg81 1 ) ) ) ) 0 ) ( = ( * Nl3arg61 lam3n10 ) 0 ) ( = ( * Nl3arg71 lam3n10 ) 0 ) ( = ( * Nl3arg81 lam3n10 ) 0 ) ( = ( * Nl3arg91 lam3n10 ) 0 ) ( = ( + ( * ( - 1 ) lam3n2 ) ( * 1 lam3n4 ) ( * ( - 1 ) lam3n9 ) ) 0 ) ( = ( + ( * ( - 1 ) lam3n3 ) ( * 1 lam3n9 ) ( - ( + 0 ( * Nl5arg11 1 ) ) ) ) 0 ) ( = ( - ( + 0 ( * Nl5arg91 1 ) ) ) 0 ) ) ))
(assert ( or ( and ( >= lam4n0 0 ) ( >= lam4n1 0 ) ( >= lam4n2 0 ) ( >= lam4n3 0 ) ( >= lam4n4 0 ) ( >= lam4n5 0 ) ( >= lam4n6 0 ) ( >= lam4n7 0 ) ( > ( + ( * 1 lam4n0 ) ( * 1 lam4n1 ) ( * 1 lam4n2 ) ( * Nl5CT1 lam4n7 ) ( - 1 ) ) 0 ) ( = ( + ( * ( - 1 ) lam4n0 ) ( * ( - 1 ) lam4n3 ) ( * Nl5arg11 lam4n7 ) ) 0 ) ( = ( * Nl5arg21 lam4n7 ) 0 ) ( = ( * Nl5arg31 lam4n7 ) 0 ) ( = ( * Nl5arg41 lam4n7 ) 0 ) ( = ( + ( * 1 lam4n4 ) ( * Nl5arg51 lam4n7 ) ) 0 ) ( = ( + ( * ( - 1 ) lam4n5 ) ( * Nl5arg61 lam4n7 ) ) 0 ) ( = ( + ( * 1 lam4n5 ) ( * Nl5arg71 lam4n7 ) ) 0 ) ( = ( * Nl5arg81 lam4n7 ) 0 ) ( = ( * Nl5arg91 lam4n7 ) 0 ) ( = ( + ( * ( - 1 ) lam4n1 ) ( * 1 lam4n6 ) ) 0 ) ( = ( + ( * ( - 1 ) lam4n2 ) ( * 1 lam4n3 ) ( * ( - 1 ) lam4n6 ) ) 0 ) ) ( and ( >= lam5n0 0 ) ( >= lam5n1 0 ) ( >= lam5n2 0 ) ( >= lam5n3 0 ) ( >= lam5n4 0 ) ( >= lam5n5 0 ) ( >= lam5n6 0 ) ( >= lam5n7 0 ) ( > ( + ( * 1 lam5n0 ) ( * 1 lam5n1 ) ( * 1 lam5n2 ) ( * Nl5CT1 lam5n7 ) ( - 1 ( + ( + ( + ( + ( + ( + ( + ( + Nl3CT1 ( * Nl3arg11 0 ) ) ( * Nl3arg31 1 ) ) ( * Nl3arg41 0 ) ) ( * Nl3arg51 0 ) ) ( * Nl3arg61 0 ) ) ( * Nl3arg71 0 ) ) ( * Nl3arg81 0 ) ) ( * Nl3arg91 0 ) ) ) ) 0 ) ( = ( + ( * ( - 1 ) lam5n0 ) ( * ( - 1 ) lam5n3 ) ( * Nl5arg11 lam5n7 ) ) 0 ) ( = ( + ( * Nl5arg21 lam5n7 ) ( - ( + 0 Nl3arg21 ) ) ) 0 ) ( = ( + ( * Nl5arg31 lam5n7 ) ( - ( + 0 ( * Nl3arg41 1 ) ) ) ) 0 ) ( = ( + ( * Nl5arg41 lam5n7 ) ( - ( + 0 ( * Nl3arg31 1 ) ) ) ) 0 ) ( = ( + ( * 1 lam5n4 ) ( * Nl5arg51 lam5n7 ) ) 0 ) ( = ( + ( * ( - 1 ) lam5n5 ) ( * Nl5arg61 lam5n7 ) ) 0 ) ( = ( + ( * 1 lam5n5 ) ( * Nl5arg71 lam5n7 ) ) 0 ) ( = ( + ( * Nl5arg81 lam5n7 ) ( - ( + 0 ( * Nl3arg51 1 ) ) ) ) 0 ) ( = ( * Nl5arg91 lam5n7 ) 0 ) ( = ( + ( * ( - 1 ) lam5n1 ) ( * 1 lam5n6 ) ( - ( + 0 ( * Nl3arg11 1 ) ) ) ) 0 ) ( = ( - ( + 0 ( * Nl3arg61 1 ) ) ) 0 ) ( = ( - ( + 0 ( * Nl3arg71 1 ) ) ) 0 ) ( = ( - ( + 0 ( * Nl3arg81 1 ) ) ) 0 ) ( = ( - ( + 0 ( * Nl3arg91 1 ) ) ) 0 ) ( = ( + ( * ( - 1 ) lam5n2 ) ( * 1 lam5n3 ) ( * ( - 1 ) lam5n6 ) ) 0 ) ) ))
(assert ( or ( and ( >= lam6n0 0 ) ( >= lam6n1 0 ) ( >= lam6n2 0 ) ( >= lam6n3 0 ) ( >= lam6n4 0 ) ( >= lam6n5 0 ) ( >= lam6n6 0 ) ( >= lam6n7 0 ) ( >= lam6n8 0 ) ( >= lam6n9 0 ) ( >= lam6n10 0 ) ( > ( + ( * 1 lam6n0 ) ( * 1 lam6n1 ) ( * 1 lam6n2 ) ( * 1 lam6n3 ) ( * Nl5CT1 lam6n10 ) ( - 1 ) ) 0 ) ( = ( + ( * ( - 1 ) lam6n0 ) ( * ( - 1 ) lam6n4 ) ( * Nl5arg11 lam6n10 ) ) 0 ) ( = ( + ( * ( - 1 ) lam6n5 ) ( * ( - 2 ) lam6n6 ) ( * Nl5arg21 lam6n10 ) ) 0 ) ( = ( * Nl5arg31 lam6n10 ) 0 ) ( = ( + ( * ( - 3 ) lam6n6 ) ( * ( - 1 ) lam6n7 ) ( * Nl5arg41 lam6n10 ) ) 0 ) ( = ( + ( * ( - 1 ) lam6n1 ) ( * Nl5arg51 lam6n10 ) ) 0 ) ( = ( + ( * ( - 1 ) lam6n8 ) ( * Nl5arg61 lam6n10 ) ) 0 ) ( = ( + ( * 1 lam6n8 ) ( * Nl5arg71 lam6n10 ) ) 0 ) ( = ( * Nl5arg81 lam6n10 ) 0 ) ( = ( * Nl5arg91 lam6n10 ) 0 ) ( = ( + ( * ( - 1 ) lam6n2 ) ( * 1 lam6n9 ) ) 0 ) ( = ( + ( * ( - 1 ) lam6n3 ) ( * 1 lam6n4 ) ( * ( - 1 ) lam6n9 ) ) 0 ) ) ( and ( >= lam7n0 0 ) ( >= lam7n1 0 ) ( >= lam7n2 0 ) ( >= lam7n3 0 ) ( >= lam7n4 0 ) ( >= lam7n5 0 ) ( >= lam7n6 0 ) ( >= lam7n7 0 ) ( >= lam7n8 0 ) ( >= lam7n9 0 ) ( >= lam7n10 0 ) ( > ( + ( * 1 lam7n0 ) ( * 1 lam7n1 ) ( * 1 lam7n2 ) ( * 1 lam7n3 ) ( * Nl5CT1 lam7n10 ) ( - 1 ( + ( + ( + ( + ( + Nl5CT1 ( * Nl5arg11 0 ) ) ( * Nl5arg51 ( - 1 ) ) ) ( * Nl5arg61 0 ) ) ( * Nl5arg71 ( - 4 ) ) ) ( * Nl5arg91 0 ) ) ) ) 0 ) ( = ( + ( * ( - 1 ) lam7n0 ) ( * ( - 1 ) lam7n4 ) ( * Nl5arg11 lam7n10 ) ) 0 ) ( = ( + ( * ( - 1 ) lam7n5 ) ( * ( - 2 ) lam7n6 ) ( * Nl5arg21 lam7n10 ) ( - ( + ( + 0 Nl5arg21 ) ( * Nl5arg71 2 ) ) ) ) 0 ) ( = ( + ( * Nl5arg31 lam7n10 ) ( - ( + 0 Nl5arg31 ) ) ) 0 ) ( = ( + ( * ( - 3 ) lam7n6 ) ( * ( - 1 ) lam7n7 ) ( * Nl5arg41 lam7n10 ) ( - ( + ( + 0 Nl5arg41 ) ( * Nl5arg71 3 ) ) ) ) 0 ) ( = ( + ( * ( - 1 ) lam7n1 ) ( * Nl5arg51 lam7n10 ) ( - ( + ( + 0 ( * Nl5arg51 1 ) ) ( * Nl5arg71 4 ) ) ) ) 0 ) ( = ( + ( * ( - 1 ) lam7n8 ) ( * Nl5arg61 lam7n10 ) ) 0 ) ( = ( + ( * 1 lam7n8 ) ( * Nl5arg71 lam7n10 ) ) 0 ) ( = ( + ( * Nl5arg81 lam7n10 ) ( - ( + 0 Nl5arg81 ) ) ) 0 ) ( = ( * Nl5arg91 lam7n10 ) 0 ) ( = ( + ( * ( - 1 ) lam7n2 ) ( * 1 lam7n9 ) ( - ( + 0 ( * Nl5arg11 1 ) ) ) ) 0 ) ( = ( - ( + 0 ( * Nl5arg91 1 ) ) ) 0 ) ( = ( + ( * ( - 1 ) lam7n3 ) ( * 1 lam7n4 ) ( * ( - 1 ) lam7n9 ) ) 0 ) ) ))
(assert ( or ( and ( >= lam8n0 0 ) ( >= lam8n1 0 ) ( >= lam8n2 0 ) ( >= lam8n3 0 ) ( >= lam8n4 0 ) ( >= lam8n5 0 ) ( >= lam8n6 0 ) ( >= lam8n7 0 ) ( >= lam8n8 0 ) ( >= lam8n9 0 ) ( >= lam8n10 0 ) ( > ( + ( * 1 lam8n0 ) ( * 1 lam8n1 ) ( * 1 lam8n2 ) ( * Nl5CT1 lam8n10 ) ( - 1 ) ) 0 ) ( = ( + ( * ( - 1 ) lam8n0 ) ( * ( - 1 ) lam8n3 ) ( * Nl5arg11 lam8n10 ) ) 0 ) ( = ( + ( * ( - 1 ) lam8n4 ) ( * ( - 100 ) lam8n5 ) ( * ( - 10 ) lam8n6 ) ( * Nl5arg21 lam8n10 ) ) 0 ) ( = ( * Nl5arg31 lam8n10 ) 0 ) ( = ( + ( * ( - 10 ) lam8n5 ) ( * ( - 1 ) lam8n6 ) ( * ( - 1 ) lam8n7 ) ( * Nl5arg41 lam8n10 ) ) 0 ) ( = ( + ( * ( - 1 ) lam8n5 ) ( * ( - 1 ) lam8n8 ) ( * Nl5arg51 lam8n10 ) ) 0 ) ( = ( + ( * 1 lam8n1 ) ( * ( - 1 ) lam8n9 ) ( * Nl5arg61 lam8n10 ) ) 0 ) ( = ( + ( * ( - 1 ) lam8n1 ) ( * Nl5arg71 lam8n10 ) ) 0 ) ( = ( * Nl5arg81 lam8n10 ) 0 ) ( = ( * Nl5arg91 lam8n10 ) 0 ) ( = ( + ( * ( - 1 ) lam8n2 ) ( * 1 lam8n3 ) ) 0 ) ) ( and ( >= lam9n0 0 ) ( >= lam9n1 0 ) ( >= lam9n2 0 ) ( >= lam9n3 0 ) ( >= lam9n4 0 ) ( >= lam9n5 0 ) ( >= lam9n6 0 ) ( >= lam9n7 0 ) ( >= lam9n8 0 ) ( >= lam9n9 0 ) ( >= lam9n10 0 ) ( > ( + ( * 1 lam9n0 ) ( * 1 lam9n1 ) ( * 1 lam9n2 ) ( * Nl5CT1 lam9n10 ) ( - 1 ( + ( + ( + ( + ( + Nl6CT1 ( * Nl6arg11 0 ) ) ( * Nl6arg61 0 ) ) ( * Nl6arg71 0 ) ) ( * Nl6arg81 0 ) ) ( * Nl6arg91 0 ) ) ) ) 0 ) ( = ( + ( * ( - 1 ) lam9n0 ) ( * ( - 1 ) lam9n3 ) ( * Nl5arg11 lam9n10 ) ) 0 ) ( = ( + ( * ( - 1 ) lam9n4 ) ( * ( - 100 ) lam9n5 ) ( * ( - 10 ) lam9n6 ) ( * Nl5arg21 lam9n10 ) ( - ( + ( + 0 Nl6arg21 ) ( * Nl6arg81 1000 ) ) ) ) 0 ) ( = ( + ( * Nl5arg31 lam9n10 ) ( - ( + 0 Nl6arg31 ) ) ) 0 ) ( = ( + ( * ( - 10 ) lam9n5 ) ( * ( - 1 ) lam9n6 ) ( * ( - 1 ) lam9n7 ) ( * Nl5arg41 lam9n10 ) ( - ( + ( + 0 Nl6arg41 ) ( * Nl6arg81 100 ) ) ) ) 0 ) ( = ( + ( * ( - 1 ) lam9n5 ) ( * ( - 1 ) lam9n8 ) ( * Nl5arg51 lam9n10 ) ( - ( + ( + 0 Nl6arg51 ) ( * Nl6arg81 10 ) ) ) ) 0 ) ( = ( + ( * 1 lam9n1 ) ( * ( - 1 ) lam9n9 ) ( * Nl5arg61 lam9n10 ) ( - ( + ( + 0 ( * Nl6arg71 1 ) ) ( * Nl6arg81 1 ) ) ) ) 0 ) ( = ( + ( * ( - 1 ) lam9n1 ) ( * Nl5arg71 lam9n10 ) ( - ( + 0 ( * Nl6arg61 1 ) ) ) ) 0 ) ( = ( + ( * Nl5arg81 lam9n10 ) ( - ( + 0 ( * Nl6arg91 1 ) ) ) ) 0 ) ( = ( * Nl5arg91 lam9n10 ) 0 ) ( = ( + ( * ( - 1 ) lam9n2 ) ( * 1 lam9n3 ) ( - ( + 0 ( * Nl6arg11 1 ) ) ) ) 0 ) ) ))
(assert ( or ( and ( >= lam10n0 0 ) ( >= lam10n1 0 ) ( >= lam10n2 0 ) ( >= lam10n3 0 ) ( >= lam10n4 0 ) ( > ( + ( * 1 lam10n0 ) ( * 1 lam10n1 ) ( * 1 lam10n2 ) ( * Nl6CT1 lam10n4 ) ( - 1 ) ) 0 ) ( = ( + ( * ( - 1 ) lam10n0 ) ( * ( - 1 ) lam10n3 ) ( * Nl6arg11 lam10n4 ) ) 0 ) ( = ( * Nl6arg21 lam10n4 ) 0 ) ( = ( * Nl6arg31 lam10n4 ) 0 ) ( = ( * Nl6arg41 lam10n4 ) 0 ) ( = ( * Nl6arg51 lam10n4 ) 0 ) ( = ( * Nl6arg61 lam10n4 ) 0 ) ( = ( * Nl6arg71 lam10n4 ) 0 ) ( = ( + ( * 1 lam10n1 ) ( * Nl6arg81 lam10n4 ) ) 0 ) ( = ( * Nl6arg91 lam10n4 ) 0 ) ( = ( + ( * ( - 1 ) lam10n2 ) ( * 1 lam10n3 ) ) 0 ) ) ( and ( >= lam11n0 0 ) ( >= lam11n1 0 ) ( >= lam11n2 0 ) ( >= lam11n3 0 ) ( >= lam11n4 0 ) ( > ( + ( * 1 lam11n0 ) ( * 1 lam11n1 ) ( * 1 lam11n2 ) ( * Nl6CT1 lam11n4 ) ( - 1 ( + ( + ( + ( + ( + Nl5CT1 ( * Nl5arg11 0 ) ) ( * Nl5arg61 1 ) ) ( * Nl5arg71 0 ) ) ( * Nl5arg81 0 ) ) ( * Nl5arg91 0 ) ) ) ) 0 ) ( = ( + ( * ( - 1 ) lam11n0 ) ( * ( - 1 ) lam11n3 ) ( * Nl6arg11 lam11n4 ) ) 0 ) ( = ( + ( * Nl6arg21 lam11n4 ) ( - ( + 0 Nl5arg21 ) ) ) 0 ) ( = ( + ( * Nl6arg31 lam11n4 ) ( - ( + 0 Nl5arg31 ) ) ) 0 ) ( = ( + ( * Nl6arg41 lam11n4 ) ( - ( + 0 Nl5arg41 ) ) ) 0 ) ( = ( + ( * Nl6arg51 lam11n4 ) ( - ( + 0 Nl5arg51 ) ) ) 0 ) ( = ( + ( * Nl6arg61 lam11n4 ) ( - ( + 0 ( * Nl5arg71 1 ) ) ) ) 0 ) ( = ( + ( * Nl6arg71 lam11n4 ) ( - ( + 0 ( * Nl5arg61 1 ) ) ) ) 0 ) ( = ( + ( * 1 lam11n1 ) ( * Nl6arg81 lam11n4 ) ) 0 ) ( = ( + ( * Nl6arg91 lam11n4 ) ( - ( + 0 ( * Nl5arg81 1 ) ) ) ) 0 ) ( = ( + ( * ( - 1 ) lam11n2 ) ( * 1 lam11n3 ) ( - ( + 0 ( * Nl5arg11 1 ) ) ) ) 0 ) ( = ( - ( + 0 ( * Nl5arg91 1 ) ) ) 0 ) ) ))
(assert ( or ( and ( >= lam12n0 0 ) ( >= lam12n1 0 ) ( >= lam12n2 0 ) ( >= lam12n3 0 ) ( >= lam12n4 0 ) ( > ( + ( * 1 lam12n0 ) ( * 1 lam12n1 ) ( * Nl6CT1 lam12n4 ) ( - 1 ) ) 0 ) ( = ( + ( * ( - 1 ) lam12n0 ) ( * ( - 1 ) lam12n2 ) ( * Nl6arg11 lam12n4 ) ) 0 ) ( = ( * Nl6arg21 lam12n4 ) 0 ) ( = ( * Nl6arg31 lam12n4 ) 0 ) ( = ( * Nl6arg41 lam12n4 ) 0 ) ( = ( * Nl6arg51 lam12n4 ) 0 ) ( = ( * Nl6arg61 lam12n4 ) 0 ) ( = ( * Nl6arg71 lam12n4 ) 0 ) ( = ( + ( * ( - 1 ) lam12n3 ) ( * Nl6arg81 lam12n4 ) ) 0 ) ( = ( * Nl6arg91 lam12n4 ) 0 ) ( = ( + ( * ( - 1 ) lam12n1 ) ( * 1 lam12n2 ) ) 0 ) ) ( and ( >= lam13n0 0 ) ( >= lam13n1 0 ) ( >= lam13n2 0 ) ( >= lam13n3 0 ) ( >= lam13n4 0 ) ( > ( + ( * 1 lam13n0 ) ( * 1 lam13n1 ) ( * Nl6CT1 lam13n4 ) ( - 1 ( + ( + Nl6CT1 ( * Nl6arg11 0 ) ) ( * Nl6arg81 ( - 1 ) ) ) ) ) 0 ) ( = ( + ( * ( - 1 ) lam13n0 ) ( * ( - 1 ) lam13n2 ) ( * Nl6arg11 lam13n4 ) ) 0 ) ( = ( + ( * Nl6arg21 lam13n4 ) ( - ( + 0 Nl6arg21 ) ) ) 0 ) ( = ( + ( * Nl6arg31 lam13n4 ) ( - ( + 0 Nl6arg31 ) ) ) 0 ) ( = ( + ( * Nl6arg41 lam13n4 ) ( - ( + 0 Nl6arg41 ) ) ) 0 ) ( = ( + ( * Nl6arg51 lam13n4 ) ( - ( + 0 Nl6arg51 ) ) ) 0 ) ( = ( + ( * Nl6arg61 lam13n4 ) ( - ( + 0 Nl6arg61 ) ) ) 0 ) ( = ( + ( * Nl6arg71 lam13n4 ) ( - ( + 0 Nl6arg71 ) ) ) 0 ) ( = ( + ( * ( - 1 ) lam13n3 ) ( * Nl6arg81 lam13n4 ) ( - ( + 0 ( * Nl6arg81 1 ) ) ) ) 0 ) ( = ( + ( * Nl6arg91 lam13n4 ) ( - ( + 0 Nl6arg91 ) ) ) 0 ) ( = ( + ( * ( - 1 ) lam13n1 ) ( * 1 lam13n2 ) ( - ( + 0 ( * Nl6arg11 1 ) ) ) ) 0 ) ) ))
(assert ( and ( >= lam14n0 0 ) ( >= lam14n1 0 ) ( >= lam14n2 0 ) ( >= lam14n3 0 ) ( >= lam14n4 0 ) ( >= lam14n5 0 ) ( > ( + ( * 1 lam14n0 ) ( * 1 lam14n1 ) ( * 1 lam14n2 ) ( * 1 lam14n3 ) ( - 1 Nl3CT1 ) ) 0 ) ( = ( + ( * 1 lam14n6 ) ( - ( + 0 Nl3arg11 ) ) ) 0 ) ( = ( + ( * 1 lam14n7 ) ( - ( + 0 Nl3arg21 ) ) ) 0 ) ( = ( + ( * 1 lam14n8 ) ( - ( + 0 Nl3arg31 ) ) ) 0 ) ( = ( + ( * 1 lam14n9 ) ( - ( + 0 Nl3arg41 ) ) ) 0 ) ( = ( + ( * 1 lam14n10 ) ( - ( + 0 Nl3arg51 ) ) ) 0 ) ( = ( + ( * 1 lam14n11 ) ( - ( + 0 Nl3arg61 ) ) ) 0 ) ( = ( + ( * 1 lam14n12 ) ( - ( + 0 Nl3arg71 ) ) ) 0 ) ( = ( + ( * 1 lam14n13 ) ( - ( + 0 Nl3arg81 ) ) ) 0 ) ( = ( + ( * 1 lam14n14 ) ( - ( + 0 Nl3arg91 ) ) ) 0 ) ( = ( + ( * ( - 1 ) lam14n0 ) ( * 1 lam14n4 ) ( * ( - 1 ) lam14n5 ) ) 0 ) ( = ( + ( * ( - 1 ) lam14n1 ) ( * 1 lam14n5 ) ( * ( - 1 ) lam14n6 ) ) 0 ) ( = ( * ( - 1 ) lam14n11 ) 0 ) ( = ( * ( - 1 ) lam14n12 ) 0 ) ( = ( * ( - 1 ) lam14n13 ) 0 ) ( = ( * ( - 1 ) lam14n14 ) 0 ) ( = ( + ( * ( - 1 ) lam14n2 ) ( * ( - 1 ) lam14n4 ) ) 0 ) ( = ( + ( * ( - 1 ) lam14n3 ) ( * ( - 1 ) lam14n10 ) ) 0 ) ))
(assert ( or ( and ( >= lam0n0 0 ) ( >= lam0n1 0 ) ( >= lam0n2 0 ) ( >= lam0n3 0 ) ( >= lam0n4 0 ) ( >= lam0n5 0 ) ( >= lam0n6 0 ) ( >= lam0n7 0 ) ( >= lam0n8 0 ) ( > ( + ( * 1 lam0n0 ) ( * 1 lam0n1 ) ( * 1 lam0n2 ) ( * 2 lam0n7 ) ( * Nl3CT1 lam0n8 ) ( - 1 ) ) 0 ) ( = ( + ( * ( - 1 ) lam0n0 ) ( * ( - 1 ) lam0n3 ) ( * Nl3arg11 lam0n8 ) ) 0 ) ( = ( + ( * 1 lam0n7 ) ( * Nl3arg21 lam0n8 ) ) 0 ) ( = ( + ( * ( - 1 ) lam0n4 ) ( * Nl3arg31 lam0n8 ) ) 0 ) ( = ( + ( * 1 lam0n4 ) ( * Nl3arg41 lam0n8 ) ) 0 ) ( = ( + ( * ( - 1 ) lam0n5 ) ( * ( - 1 ) lam0n7 ) ( * Nl3arg51 lam0n8 ) ) 0 ) ( = ( * Nl3arg61 lam0n8 ) 0 ) ( = ( * Nl3arg71 lam0n8 ) 0 ) ( = ( * Nl3arg81 lam0n8 ) 0 ) ( = ( * Nl3arg91 lam0n8 ) 0 ) ( = ( + ( * ( - 1 ) lam0n1 ) ( * 1 lam0n6 ) ) 0 ) ( = ( + ( * ( - 1 ) lam0n2 ) ( * 1 lam0n3 ) ( * ( - 1 ) lam0n6 ) ) 0 ) ) ( and ( >= lam2n0 0 ) ( >= lam2n1 0 ) ( >= lam2n2 0 ) ( >= lam2n3 0 ) ( >= lam2n4 0 ) ( >= lam2n5 0 ) ( >= lam2n6 0 ) ( >= lam2n7 0 ) ( >= lam2n8 0 ) ( >= lam2n9 0 ) ( >= lam2n10 0 ) ( > ( + ( * 1 lam2n0 ) ( * 1 lam2n1 ) ( * 1 lam2n2 ) ( * 1 lam2n3 ) ( * Nl3CT1 lam2n10 ) ( - 1 ) ) 0 ) ( = ( + ( * ( - 1 ) lam2n0 ) ( * ( - 1 ) lam2n4 ) ( * Nl3arg11 lam2n10 ) ) 0 ) ( = ( + ( * ( - 1 ) lam2n5 ) ( * ( - 1 ) lam2n6 ) ( * ( - 2 ) lam2n7 ) ( * Nl3arg21 lam2n10 ) ) 0 ) ( = ( + ( * 1 lam2n1 ) ( * ( - 1 ) lam2n6 ) ( * ( - 3 ) lam2n7 ) ( * ( - 1 ) lam2n8 ) ( * Nl3arg31 lam2n10 ) ) 0 ) ( = ( + ( * ( - 1 ) lam2n1 ) ( * Nl3arg41 lam2n10 ) ) 0 ) ( = ( * Nl3arg51 lam2n10 ) 0 ) ( = ( * Nl3arg61 lam2n10 ) 0 ) ( = ( * Nl3arg71 lam2n10 ) 0 ) ( = ( * Nl3arg81 lam2n10 ) 0 ) ( = ( * Nl3arg91 lam2n10 ) 0 ) ( = ( + ( * ( - 1 ) lam2n2 ) ( * 1 lam2n4 ) ( * ( - 1 ) lam2n9 ) ) 0 ) ( = ( + ( * ( - 1 ) lam2n3 ) ( * 1 lam2n9 ) ) 0 ) ) ( and ( >= lam4n0 0 ) ( >= lam4n1 0 ) ( >= lam4n2 0 ) ( >= lam4n3 0 ) ( >= lam4n4 0 ) ( >= lam4n5 0 ) ( >= lam4n6 0 ) ( >= lam4n7 0 ) ( > ( + ( * 1 lam4n0 ) ( * 1 lam4n1 ) ( * 1 lam4n2 ) ( * Nl5CT1 lam4n7 ) ( - 1 ) ) 0 ) ( = ( + ( * ( - 1 ) lam4n0 ) ( * ( - 1 ) lam4n3 ) ( * Nl5arg11 lam4n7 ) ) 0 ) ( = ( * Nl5arg21 lam4n7 ) 0 ) ( = ( * Nl5arg31 lam4n7 ) 0 ) ( = ( * Nl5arg41 lam4n7 ) 0 ) ( = ( + ( * 1 lam4n4 ) ( * Nl5arg51 lam4n7 ) ) 0 ) ( = ( + ( * ( - 1 ) lam4n5 ) ( * Nl5arg61 lam4n7 ) ) 0 ) ( = ( + ( * 1 lam4n5 ) ( * Nl5arg71 lam4n7 ) ) 0 ) ( = ( * Nl5arg81 lam4n7 ) 0 ) ( = ( * Nl5arg91 lam4n7 ) 0 ) ( = ( + ( * ( - 1 ) lam4n1 ) ( * 1 lam4n6 ) ) 0 ) ( = ( + ( * ( - 1 ) lam4n2 ) ( * 1 lam4n3 ) ( * ( - 1 ) lam4n6 ) ) 0 ) ) ( and ( >= lam6n0 0 ) ( >= lam6n1 0 ) ( >= lam6n2 0 ) ( >= lam6n3 0 ) ( >= lam6n4 0 ) ( >= lam6n5 0 ) ( >= lam6n6 0 ) ( >= lam6n7 0 ) ( >= lam6n8 0 ) ( >= lam6n9 0 ) ( >= lam6n10 0 ) ( > ( + ( * 1 lam6n0 ) ( * 1 lam6n1 ) ( * 1 lam6n2 ) ( * 1 lam6n3 ) ( * Nl5CT1 lam6n10 ) ( - 1 ) ) 0 ) ( = ( + ( * ( - 1 ) lam6n0 ) ( * ( - 1 ) lam6n4 ) ( * Nl5arg11 lam6n10 ) ) 0 ) ( = ( + ( * ( - 1 ) lam6n5 ) ( * ( - 2 ) lam6n6 ) ( * Nl5arg21 lam6n10 ) ) 0 ) ( = ( * Nl5arg31 lam6n10 ) 0 ) ( = ( + ( * ( - 3 ) lam6n6 ) ( * ( - 1 ) lam6n7 ) ( * Nl5arg41 lam6n10 ) ) 0 ) ( = ( + ( * ( - 1 ) lam6n1 ) ( * Nl5arg51 lam6n10 ) ) 0 ) ( = ( + ( * ( - 1 ) lam6n8 ) ( * Nl5arg61 lam6n10 ) ) 0 ) ( = ( + ( * 1 lam6n8 ) ( * Nl5arg71 lam6n10 ) ) 0 ) ( = ( * Nl5arg81 lam6n10 ) 0 ) ( = ( * Nl5arg91 lam6n10 ) 0 ) ( = ( + ( * ( - 1 ) lam6n2 ) ( * 1 lam6n9 ) ) 0 ) ( = ( + ( * ( - 1 ) lam6n3 ) ( * 1 lam6n4 ) ( * ( - 1 ) lam6n9 ) ) 0 ) ) ( and ( >= lam8n0 0 ) ( >= lam8n1 0 ) ( >= lam8n2 0 ) ( >= lam8n3 0 ) ( >= lam8n4 0 ) ( >= lam8n5 0 ) ( >= lam8n6 0 ) ( >= lam8n7 0 ) ( >= lam8n8 0 ) ( >= lam8n9 0 ) ( >= lam8n10 0 ) ( > ( + ( * 1 lam8n0 ) ( * 1 lam8n1 ) ( * 1 lam8n2 ) ( * Nl5CT1 lam8n10 ) ( - 1 ) ) 0 ) ( = ( + ( * ( - 1 ) lam8n0 ) ( * ( - 1 ) lam8n3 ) ( * Nl5arg11 lam8n10 ) ) 0 ) ( = ( + ( * ( - 1 ) lam8n4 ) ( * ( - 100 ) lam8n5 ) ( * ( - 10 ) lam8n6 ) ( * Nl5arg21 lam8n10 ) ) 0 ) ( = ( * Nl5arg31 lam8n10 ) 0 ) ( = ( + ( * ( - 10 ) lam8n5 ) ( * ( - 1 ) lam8n6 ) ( * ( - 1 ) lam8n7 ) ( * Nl5arg41 lam8n10 ) ) 0 ) ( = ( + ( * ( - 1 ) lam8n5 ) ( * ( - 1 ) lam8n8 ) ( * Nl5arg51 lam8n10 ) ) 0 ) ( = ( + ( * 1 lam8n1 ) ( * ( - 1 ) lam8n9 ) ( * Nl5arg61 lam8n10 ) ) 0 ) ( = ( + ( * ( - 1 ) lam8n1 ) ( * Nl5arg71 lam8n10 ) ) 0 ) ( = ( * Nl5arg81 lam8n10 ) 0 ) ( = ( * Nl5arg91 lam8n10 ) 0 ) ( = ( + ( * ( - 1 ) lam8n2 ) ( * 1 lam8n3 ) ) 0 ) ) ( and ( >= lam10n0 0 ) ( >= lam10n1 0 ) ( >= lam10n2 0 ) ( >= lam10n3 0 ) ( >= lam10n4 0 ) ( > ( + ( * 1 lam10n0 ) ( * 1 lam10n1 ) ( * 1 lam10n2 ) ( * Nl6CT1 lam10n4 ) ( - 1 ) ) 0 ) ( = ( + ( * ( - 1 ) lam10n0 ) ( * ( - 1 ) lam10n3 ) ( * Nl6arg11 lam10n4 ) ) 0 ) ( = ( * Nl6arg21 lam10n4 ) 0 ) ( = ( * Nl6arg31 lam10n4 ) 0 ) ( = ( * Nl6arg41 lam10n4 ) 0 ) ( = ( * Nl6arg51 lam10n4 ) 0 ) ( = ( * Nl6arg61 lam10n4 ) 0 ) ( = ( * Nl6arg71 lam10n4 ) 0 ) ( = ( + ( * 1 lam10n1 ) ( * Nl6arg81 lam10n4 ) ) 0 ) ( = ( * Nl6arg91 lam10n4 ) 0 ) ( = ( + ( * ( - 1 ) lam10n2 ) ( * 1 lam10n3 ) ) 0 ) ) ( and ( >= lam12n0 0 ) ( >= lam12n1 0 ) ( >= lam12n2 0 ) ( >= lam12n3 0 ) ( >= lam12n4 0 ) ( > ( + ( * 1 lam12n0 ) ( * 1 lam12n1 ) ( * Nl6CT1 lam12n4 ) ( - 1 ) ) 0 ) ( = ( + ( * ( - 1 ) lam12n0 ) ( * ( - 1 ) lam12n2 ) ( * Nl6arg11 lam12n4 ) ) 0 ) ( = ( * Nl6arg21 lam12n4 ) 0 ) ( = ( * Nl6arg31 lam12n4 ) 0 ) ( = ( * Nl6arg41 lam12n4 ) 0 ) ( = ( * Nl6arg51 lam12n4 ) 0 ) ( = ( * Nl6arg61 lam12n4 ) 0 ) ( = ( * Nl6arg71 lam12n4 ) 0 ) ( = ( + ( * ( - 1 ) lam12n3 ) ( * Nl6arg81 lam12n4 ) ) 0 ) ( = ( * Nl6arg91 lam12n4 ) 0 ) ( = ( + ( * ( - 1 ) lam12n1 ) ( * 1 lam12n2 ) ) 0 ) ) ))
(check-sat)
(exit)
